     200         5
     199         2
     198         2
     197         2
     196         1
     195         3
     194         2
     193         2
     192         4
     191         2
     190         4
     188         3
     187         2
     186         2
     185         1
     184         1
     183         1
     182         1
     181         3
     180         1
     178         3
     177         2
     176         2
     174         1
     173         1
     172         1
     171         3
     168         2
     167         1
     165         1
     164         1
     163         1
     162         3
     161         3
     160         3
     159         2
     158         3
     157         3
     156         2
     155         5
     154         3
     153         3
     151         5
     150         2